c   #vars: 42   #clauses: 175   #literals: 510
c 
p cnf 42 175
-1 -2 0
-3 -4 0
-5 -6 0
-7 -8 0
-9 -10 0
14 34 35 -36 0
5 6 -29 -30 0
-5 -6 29 30 0
-12 -13 0
24 38 39 -42 0
-15 -16 0
-17 -18 0
-19 -20 0
-5 17 18 28 0
-22 -23 0
12 13 17 18 0
-12 25 38 39 0
15 16 -19 31 0
-26 -27 0
7 8 21 -38 0
-29 -30 0
-24 26 27 42 0
-32 -33 0
-34 -35 0
-36 -37 0
3 4 36 37 0
-38 -39 0
-40 -41 0
11 26 27 -29 0
-1 -15 0
-2 -16 0
11 -15 29 30 0
-1 -19 0
-2 -20 0
-3 15 16 31 0
-2 -25 0
7 8 29 30 0
-1 -40 0
-2 -41 0
-3 -22 0
-4 -23 0
12 13 38 39 0
-3 -26 0
-4 -27 0
-4 26 27 42 0
-4 -31 0
-3 -36 0
-4 -37 0
14 -34 36 37 0
-3 -42 0
5 6 26 27 0
3 4 -15 31 0
11 15 16 -29 0
-5 -22 0
-6 -23 0
1 2 19 20 0
-5 -26 0
-6 -27 0
-4 24 -38 42 0
-6 -28 0
9 10 40 41 0
-7 -17 0
-8 -18 0
12 13 -17 28 0
-8 -21 0
-7 24 -27 42 0
-1 25 38 39 0
-8 -24 0
7 8 21 -36 0
-15 19 20 31 0
9 10 36 37 0
-7 -29 0
-8 -30 0
22 23 34 35 0
-7 -32 0
-8 -33 0
9 10 15 16 0
-9 -15 0
-10 -16 0
15 16 40 41 0
-9 -17 0
-10 -18 0
-7 21 38 39 0
-9 -22 0
-10 -23 0
1 2 15 16 0
-9 -29 0
-10 -30 0
-9 -36 0
-10 -37 0
-9 -40 0
-10 -41 0
12 13 25 -38 0
14 -32 34 35 0
-11 -16 0
7 8 24 -38 0
14 32 33 -36 0
-11 -27 0
7 8 24 -42 0
14 32 33 -34 0
-11 -30 0
15 16 29 30 0
3 4 -19 31 0
-12 -17 0
-13 -18 0
26 27 40 41 0
-7 -8 17 18 0
-13 -25 0
-13 -28 0
19 20 34 35 0
-12 -32 0
-13 -33 0
3 4 22 23 0
-12 -38 0
-13 -39 0
17 18 34 35 0
-7 24 38 39 0
-14 -33 0
-14 -35 0
9 10 22 23 0
-14 -37 0
24 -27 -38 42 0
21 36 37 -38 0
-4 -7 24 42 0
-7 21 36 37 0
9 10 17 18 0
-15 -29 0
-16 -30 0
9 10 29 30 0
3 4 -27 42 0
-16 -31 0
7 8 32 33 0
-15 -40 0
-16 -41 0
19 20 32 33 0
11 -26 29 30 0
-18 -28 0
5 6 -12 28 0
-3 19 20 31 0
-17 -34 0
-18 -35 0
3 4 -24 42 0
-20 -31 0
21 -36 38 39 0
-19 -32 0
-20 -33 0
14 -32 36 37 0
-19 -34 0
-20 -35 0
5 6 22 23 0
-5 12 13 28 0
-21 -37 0
5 6 -17 28 0
-21 -39 0
12 13 32 33 0
11 15 16 -26 0
3 4 26 27 0
-22 -34 0
-23 -35 0
-1 12 13 25 0
7 8 17 18 0
1 2 40 41 0
1 2 25 -38 0
-24 -39 0
11 -15 26 27 0
1 2 -12 25 0
7 8 -17 -18 0
-25 -39 0
26 27 29 30 0
-26 -29 0
-27 -30 0
-26 -40 0
-27 -41 0
-12 17 18 28 0
-26 -42 0
